c "665987.clq"
p edge 100 1344
e 1 17
e 1 18
e 1 19
e 1 20
e 1 21
e 1 23
e 1 26
e 1 27
e 1 30
e 1 36
e 1 38
e 1 39
e 1 47
e 1 59
e 1 62
e 1 73
e 1 76
e 1 81
e 1 82
e 1 85
e 1 93
e 1 98
e 2 17
e 2 18
e 2 19
e 2 20
e 2 21
e 2 22
e 2 23
e 2 24
e 2 26
e 2 27
e 2 29
e 2 33
e 2 35
e 2 37
e 2 39
e 2 49
e 2 51
e 2 56
e 2 65
e 2 69
e 2 70
e 2 71
e 2 72
e 2 84
e 2 88
e 2 94
e 2 95
e 3 17
e 3 18
e 3 19
e 3 20
e 3 21
e 3 22
e 3 24
e 3 26
e 3 28
e 3 30
e 3 36
e 3 40
e 3 44
e 3 45
e 3 46
e 3 47
e 3 56
e 3 58
e 3 63
e 3 65
e 3 67
e 3 71
e 3 80
e 3 81
e 3 84
e 3 86
e 3 97
e 4 17
e 4 18
e 4 19
e 4 20
e 4 22
e 4 23
e 4 25
e 4 33
e 4 34
e 4 35
e 4 37
e 4 49
e 4 57
e 4 67
e 4 69
e 4 74
e 4 80
e 4 81
e 4 93
e 4 97
e 5 17
e 5 18
e 5 19
e 5 20
e 5 21
e 5 22
e 5 23
e 5 24
e 5 26
e 5 27
e 5 31
e 5 32
e 5 35
e 5 38
e 5 41
e 5 42
e 5 47
e 5 49
e 5 50
e 5 55
e 5 60
e 5 63
e 5 66
e 5 70
e 5 71
e 5 75
e 5 87
e 5 88
e 5 89
e 5 92
e 5 95
e 5 97
e 5 98
e 6 17
e 6 19
e 6 21
e 6 30
e 6 31
e 6 38
e 6 61
e 6 81
e 7 17
e 7 18
e 7 19
e 7 20
e 7 21
e 7 22
e 7 23
e 7 24
e 7 28
e 7 32
e 7 33
e 7 40
e 7 41
e 7 42
e 7 44
e 7 45
e 7 48
e 7 50
e 7 52
e 7 55
e 7 58
e 7 59
e 7 61
e 7 63
e 7 66
e 7 73
e 7 74
e 7 81
e 7 83
e 7 84
e 7 91
e 7 94
e 7 99
e 8 17
e 8 18
e 8 20
e 8 27
e 8 28
e 8 32
e 8 33
e 8 34
e 8 36
e 8 39
e 8 48
e 8 51
e 8 52
e 8 54
e 8 55
e 8 67
e 8 73
e 8 75
e 8 83
e 8 92
e 8 97
e 8 98
e 9 17
e 9 18
e 9 20
e 9 21
e 9 22
e 9 23
e 9 25
e 9 27
e 9 28
e 9 29
e 9 31
e 9 33
e 9 34
e 9 40
e 9 44
e 9 45
e 9 46
e 9 53
e 9 54
e 9 55
e 9 56
e 9 57
e 9 58
e 9 68
e 9 72
e 9 78
e 9 79
e 9 85
e 9 100
e 10 17
e 10 18
e 10 19
e 10 20
e 10 21
e 10 22
e 10 24
e 10 25
e 10 33
e 10 35
e 10 38
e 10 49
e 10 50
e 10 57
e 10 60
e 10 64
e 10 66
e 10 73
e 10 88
e 11 17
e 11 18
e 11 19
e 11 22
e 11 25
e 11 26
e 11 27
e 11 30
e 11 34
e 11 35
e 11 38
e 11 63
e 11 69
e 11 78
e 12 17
e 12 18
e 12 19
e 12 21
e 12 23
e 12 24
e 12 25
e 12 31
e 12 36
e 12 50
e 12 56
e 12 81
e 12 88
e 12 92
e 13 17
e 13 18
e 13 19
e 13 20
e 13 21
e 13 22
e 13 23
e 13 28
e 13 29
e 13 30
e 13 34
e 13 36
e 13 37
e 13 42
e 13 46
e 13 49
e 13 53
e 13 54
e 13 56
e 13 58
e 13 61
e 13 66
e 13 68
e 13 70
e 13 76
e 13 79
e 13 85
e 13 93
e 13 95
e 14 17
e 14 18
e 14 19
e 14 20
e 14 24
e 14 25
e 14 26
e 14 27
e 14 29
e 14 36
e 14 37
e 14 45
e 14 46
e 14 51
e 14 52
e 14 57
e 14 60
e 14 64
e 14 73
e 14 74
e 14 77
e 14 82
e 14 85
e 14 91
e 14 96
e 15 17
e 15 18
e 15 19
e 15 20
e 15 21
e 15 22
e 15 23
e 15 24
e 15 25
e 15 26
e 15 27
e 15 28
e 15 29
e 15 30
e 15 32
e 15 34
e 15 35
e 15 36
e 15 40
e 15 42
e 15 45
e 15 47
e 15 51
e 15 52
e 15 53
e 15 54
e 15 55
e 15 56
e 15 57
e 15 58
e 15 59
e 15 61
e 15 63
e 15 64
e 15 68
e 15 70
e 15 73
e 15 75
e 15 77
e 15 79
e 15 88
e 15 97
e 16 17
e 16 18
e 16 19
e 16 20
e 16 21
e 16 22
e 16 23
e 16 24
e 16 25
e 16 26
e 16 27
e 16 29
e 16 31
e 16 32
e 16 36
e 16 37
e 16 47
e 16 65
e 16 74
e 16 76
e 16 77
e 16 84
e 16 88
e 16 91
e 16 96
e 17 18
e 17 19
e 17 20
e 17 21
e 17 22
e 17 23
e 17 24
e 17 25
e 17 26
e 17 27
e 17 28
e 17 29
e 17 30
e 17 31
e 17 32
e 17 33
e 17 34
e 17 35
e 17 38
e 17 41
e 17 43
e 17 45
e 17 48
e 17 49
e 17 50
e 17 51
e 17 52
e 17 53
e 17 58
e 17 59
e 17 60
e 17 62
e 17 64
e 17 66
e 17 69
e 17 76
e 17 78
e 17 88
e 17 89
e 17 92
e 17 97
e 17 98
e 17 99
e 18 19
e 18 20
e 18 21
e 18 22
e 18 23
e 18 24
e 18 25
e 18 26
e 18 27
e 18 28
e 18 29
e 18 30
e 18 31
e 18 32
e 18 33
e 18 34
e 18 35
e 18 37
e 18 41
e 18 42
e 18 44
e 18 45
e 18 48
e 18 50
e 18 52
e 18 56
e 18 60
e 18 61
e 18 62
e 18 63
e 18 64
e 18 65
e 18 66
e 18 68
e 18 69
e 18 71
e 18 72
e 18 75
e 18 78
e 18 82
e 18 86
e 18 87
e 18 89
e 18 91
e 18 95
e 18 96
e 18 98
e 18 99
e 19 20
e 19 21
e 19 22
e 19 23
e 19 24
e 19 25
e 19 26
e 19 27
e 19 28
e 19 29
e 19 30
e 19 31
e 19 34
e 19 35
e 19 37
e 19 38
e 19 39
e 19 40
e 19 41
e 19 42
e 19 43
e 19 44
e 19 45
e 19 49
e 19 53
e 19 55
e 19 56
e 19 57
e 19 62
e 19 64
e 19 68
e 19 72
e 19 73
e 19 74
e 19 77
e 19 80
e 19 86
e 19 87
e 19 89
e 19 91
e 19 95
e 19 96
e 19 98
e 19 99
e 19 100
e 20 21
e 20 22
e 20 23
e 20 24
e 20 25
e 20 26
e 20 27
e 20 28
e 20 29
e 20 30
e 20 31
e 20 32
e 20 33
e 20 34
e 20 36
e 20 37
e 20 39
e 20 40
e 20 41
e 20 43
e 20 45
e 20 48
e 20 54
e 20 59
e 20 61
e 20 62
e 20 64
e 20 68
e 20 69
e 20 70
e 20 72
e 20 75
e 20 77
e 20 79
e 20 82
e 20 84
e 20 87
e 20 89
e 20 96
e 21 22
e 21 23
e 21 24
e 21 25
e 21 26
e 21 27
e 21 28
e 21 29
e 21 30
e 21 31
e 21 32
e 21 33
e 21 35
e 21 36
e 21 37
e 21 39
e 21 40
e 21 41
e 21 42
e 21 43
e 21 46
e 21 48
e 21 49
e 21 50
e 21 54
e 21 60
e 21 74
e 21 75
e 21 78
e 21 79
e 21 82
e 21 83
e 21 84
e 21 85
e 21 92
e 21 94
e 21 98
e 21 99
e 21 100
e 22 23
e 22 24
e 22 25
e 22 26
e 22 29
e 22 30
e 22 32
e 22 33
e 22 34
e 22 36
e 22 38
e 22 39
e 22 40
e 22 41
e 22 45
e 22 46
e 22 47
e 22 49
e 22 50
e 22 54
e 22 58
e 22 59
e 22 60
e 22 61
e 22 64
e 22 72
e 22 78
e 22 80
e 22 83
e 22 94
e 22 96
e 23 24
e 23 25
e 23 26
e 23 27
e 23 28
e 23 29
e 23 30
e 23 31
e 23 32
e 23 33
e 23 38
e 23 42
e 23 43
e 23 47
e 23 49
e 23 55
e 23 56
e 23 58
e 23 61
e 23 64
e 23 66
e 23 70
e 23 71
e 23 72
e 23 77
e 23 84
e 23 85
e 23 90
e 23 97
e 24 25
e 24 26
e 24 28
e 24 30
e 24 31
e 24 32
e 24 33
e 24 34
e 24 35
e 24 36
e 24 38
e 24 39
e 24 43
e 24 46
e 24 47
e 24 48
e 24 52
e 24 54
e 24 58
e 24 67
e 24 68
e 24 69
e 24 71
e 24 74
e 24 77
e 24 78
e 24 79
e 24 82
e 24 84
e 24 85
e 24 91
e 24 95
e 25 28
e 25 29
e 25 30
e 25 31
e 25 32
e 25 33
e 25 35
e 25 38
e 25 40
e 25 41
e 25 42
e 25 43
e 25 44
e 25 46
e 25 47
e 25 50
e 25 51
e 25 56
e 25 61
e 25 68
e 25 71
e 25 72
e 25 83
e 25 84
e 25 86
e 25 88
e 25 92
e 25 98
e 26 27
e 26 28
e 26 29
e 26 31
e 26 32
e 26 33
e 26 35
e 26 37
e 26 38
e 26 39
e 26 41
e 26 42
e 26 43
e 26 44
e 26 45
e 26 48
e 26 49
e 26 51
e 26 53
e 26 54
e 26 55
e 26 56
e 26 57
e 26 58
e 26 61
e 26 62
e 26 65
e 26 66
e 26 67
e 26 68
e 26 69
e 26 76
e 26 80
e 26 83
e 26 85
e 26 94
e 26 95
e 26 100
e 27 28
e 27 29
e 27 30
e 27 34
e 27 35
e 27 37
e 27 39
e 27 40
e 27 41
e 27 42
e 27 44
e 27 47
e 27 50
e 27 56
e 27 57
e 27 59
e 27 67
e 27 68
e 27 69
e 27 70
e 27 78
e 27 79
e 27 80
e 27 82
e 27 88
e 27 90
e 27 95
e 28 32
e 28 33
e 28 34
e 28 36
e 28 37
e 28 39
e 28 40
e 28 41
e 28 42
e 28 43
e 28 44
e 28 48
e 28 49
e 28 51
e 28 52
e 28 72
e 28 73
e 28 80
e 28 82
e 28 93
e 28 94
e 29 31
e 29 35
e 29 36
e 29 37
e 29 38
e 29 39
e 29 46
e 29 47
e 29 51
e 29 58
e 29 60
e 29 64
e 29 69
e 29 70
e 29 77
e 29 83
e 29 89
e 29 92
e 30 31
e 30 32
e 30 39
e 30 43
e 30 44
e 30 45
e 30 48
e 30 50
e 30 51
e 30 53
e 30 54
e 30 60
e 30 61
e 30 64
e 30 67
e 30 68
e 30 74
e 30 76
e 30 79
e 30 81
e 30 87
e 30 88
e 30 91
e 30 93
e 31 34
e 31 36
e 31 40
e 31 41
e 31 42
e 31 44
e 31 46
e 31 48
e 31 51
e 31 55
e 31 56
e 31 63
e 31 65
e 31 73
e 31 93
e 31 100
e 32 34
e 32 37
e 32 39
e 32 40
e 32 44
e 32 45
e 32 48
e 32 52
e 32 55
e 32 57
e 32 62
e 32 64
e 32 65
e 32 66
e 32 86
e 32 93
e 32 94
e 32 95
e 33 37
e 33 38
e 33 39
e 33 40
e 33 41
e 33 44
e 33 48
e 33 50
e 33 53
e 33 54
e 33 58
e 33 59
e 33 63
e 33 69
e 33 71
e 33 73
e 33 74
e 33 80
e 33 88
e 33 90
e 34 35
e 34 36
e 34 42
e 34 43
e 34 46
e 34 47
e 34 49
e 34 51
e 34 52
e 34 53
e 34 55
e 34 58
e 34 63
e 34 64
e 34 67
e 34 76
e 34 79
e 34 81
e 34 84
e 34 88
e 34 96
e 34 98
e 34 99
e 34 100
e 35 37
e 35 38
e 35 40
e 35 43
e 35 50
e 35 53
e 35 61
e 35 62
e 35 67
e 35 69
e 35 78
e 35 79
e 35 80
e 35 83
e 35 85
e 35 92
e 35 94
e 35 100
e 36 42
e 36 49
e 36 51
e 36 53
e 36 55
e 36 57
e 36 60
e 36 67
e 36 75
e 36 76
e 36 79
e 36 86
e 36 96
e 36 99
e 36 100
e 37 38
e 37 40
e 37 41
e 37 45
e 37 47
e 37 50
e 37 51
e 37 64
e 37 65
e 37 71
e 37 74
e 37 77
e 37 78
e 37 84
e 37 93
e 37 95
e 37 97
e 37 99
e 38 39
e 38 42
e 38 43
e 38 44
e 38 45
e 38 46
e 38 47
e 38 48
e 38 50
e 38 51
e 38 53
e 38 57
e 38 58
e 38 61
e 38 62
e 38 66
e 38 69
e 38 75
e 38 78
e 38 81
e 38 82
e 38 96
e 39 43
e 39 47
e 39 48
e 39 52
e 39 63
e 39 66
e 39 75
e 39 82
e 39 83
e 39 85
e 39 87
e 39 93
e 39 97
e 40 41
e 40 43
e 40 44
e 40 46
e 40 49
e 40 50
e 40 52
e 40 59
e 40 60
e 40 62
e 40 66
e 40 72
e 41 43
e 41 44
e 41 46
e 41 52
e 41 54
e 41 57
e 41 59
e 41 60
e 41 62
e 41 71
e 41 73
e 41 75
e 41 80
e 41 82
e 41 85
e 41 90
e 41 94
e 42 47
e 42 48
e 42 49
e 42 55
e 42 60
e 42 70
e 42 75
e 42 93
e 43 46
e 43 55
e 43 59
e 43 64
e 43 65
e 43 67
e 43 74
e 43 76
e 43 83
e 43 84
e 43 92
e 44 45
e 44 46
e 44 52
e 44 53
e 44 56
e 44 57
e 44 60
e 44 65
e 44 70
e 44 73
e 44 81
e 44 85
e 44 86
e 44 87
e 44 88
e 44 91
e 44 92
e 44 95
e 45 54
e 45 57
e 45 66
e 45 72
e 45 77
e 45 81
e 45 83
e 45 84
e 45 86
e 45 89
e 46 52
e 46 53
e 46 56
e 46 63
e 46 65
e 46 71
e 46 76
e 46 78
e 46 80
e 46 85
e 46 87
e 46 88
e 46 91
e 46 100
e 47 54
e 47 58
e 47 66
e 47 67
e 47 72
e 47 90
e 48 53
e 48 55
e 48 61
e 48 62
e 48 63
e 48 64
e 48 68
e 48 69
e 48 70
e 48 71
e 48 90
e 48 96
e 49 51
e 49 54
e 49 59
e 49 67
e 49 68
e 49 70
e 49 73
e 49 74
e 49 75
e 49 83
e 49 85
e 49 88
e 49 89
e 49 96
e 50 55
e 50 60
e 50 68
e 50 89
e 50 92
e 51 52
e 51 53
e 51 61
e 51 62
e 51 65
e 51 70
e 51 72
e 51 77
e 51 78
e 51 95
e 51 98
e 52 56
e 52 57
e 52 58
e 52 59
e 52 62
e 52 70
e 52 72
e 52 73
e 52 78
e 52 80
e 52 96
e 52 97
e 53 54
e 53 61
e 53 63
e 53 66
e 53 67
e 53 71
e 53 86
e 53 99
e 54 87
e 54 97
e 54 99
e 55 57
e 55 59
e 55 75
e 55 81
e 55 85
e 55 87
e 55 94
e 56 59
e 56 63
e 56 65
e 56 79
e 56 86
e 57 59
e 57 65
e 57 66
e 57 67
e 57 73
e 57 77
e 57 81
e 57 93
e 58 60
e 58 67
e 58 69
e 58 73
e 58 76
e 58 77
e 58 78
e 58 82
e 58 87
e 58 91
e 58 94
e 58 95
e 58 97
e 59 62
e 59 63
e 59 74
e 59 76
e 59 77
e 59 83
e 59 84
e 59 93
e 59 95
e 59 100
e 60 62
e 60 69
e 60 72
e 60 99
e 61 71
e 61 74
e 61 75
e 61 79
e 61 80
e 61 81
e 61 90
e 61 96
e 62 63
e 62 65
e 62 76
e 62 87
e 62 91
e 63 70
e 63 71
e 63 76
e 63 89
e 63 94
e 63 99
e 64 65
e 64 71
e 64 72
e 64 74
e 64 77
e 64 79
e 64 81
e 64 95
e 64 100
e 65 68
e 65 94
e 66 82
e 66 83
e 67 68
e 67 74
e 67 86
e 67 93
e 68 75
e 68 76
e 68 79
e 68 86
e 68 89
e 68 90
e 68 96
e 68 98
e 68 99
e 69 70
e 69 81
e 69 90
e 70 76
e 70 77
e 70 80
e 70 82
e 70 89
e 70 90
e 70 91
e 70 94
e 70 97
e 70 99
e 71 96
e 71 99
e 72 84
e 72 85
e 72 90
e 73 80
e 73 83
e 73 86
e 73 87
e 73 91
e 73 92
e 73 98
e 74 75
e 74 78
e 74 79
e 74 82
e 74 83
e 74 91
e 75 88
e 75 89
e 75 90
e 75 92
e 75 98
e 76 80
e 76 82
e 76 87
e 77 87
e 78 86
e 79 86
e 79 89
e 79 92
e 80 89
e 80 90
e 80 98
e 81 90
e 81 91
e 82 84
e 82 86
e 82 90
e 82 93
e 82 94
e 83 87
e 83 90
e 83 91
e 83 93
e 83 97
e 83 100
e 84 92
e 84 94
e 84 96
e 86 98
e 88 89
e 89 92
e 90 95
e 90 97
e 91 93
e 95 98
e 95 99
e 95 100
e 96 97
e 96 100
e 97 100
e 99 100
